
Gurobi 11.0.0 (linux64) logging started Wed Dec 18 03:56:43 2024

Set parameter LogFile to value "gurobi.log"
Set parameter InfUnbdInfo to value 1
Gurobi Optimizer version 11.0.0 build v11.0.0rc2 (linux64 - "Ubuntu 22.04.4 LTS")

CPU model: AMD EPYC 7V13 64-Core Processor, instruction set [SSE2|AVX|AVX2]
Thread count: 128 physical cores, 128 logical processors, using up to 32 threads

Optimize a model with 56 rows, 200 columns and 157 nonzeros
Model fingerprint: 0x403ce5a7
Model has 109 quadratic constraints
Model has 19 general constraints
Variable types: 41 continuous, 159 integer (0 binary)
Coefficient statistics:
  Matrix range     [1e+00, 2e+01]
  QMatrix range    [1e+00, 4e+02]
  QLMatrix range   [1e+00, 1e+00]
  Objective range  [1e+00, 1e+00]
  Bounds range     [1e+00, 2e+06]
  RHS range        [1e+00, 2e+06]
  QRHS range       [3e+02, 9e+03]
Using branch priorities (all 0).
Presolve added 44 rows and 79 columns
Presolve time: 0.01s
Presolved: 541 rows, 496 columns, 2398 nonzeros
Presolved model has 120 SOS constraint(s)
Presolved model has 39 bilinear constraint(s)
Warning: Model contains variables with very large bounds participating
         in product terms.
         Presolve was not able to compute smaller bounds for these variables.
         Consider bounding these variables or reformulating the model.


Solving non-convex MIQCP

Variable types: 126 continuous, 370 integer (98 binary)

Root relaxation: objective 1.499421e+02, 170 iterations, 0.00 seconds (0.00 work units)

    Nodes    |    Current Node    |     Objective Bounds      |     Work
 Expl Unexpl |  Obj  Depth IntInf | Incumbent    BestBd   Gap | It/Node Time

     0     0  149.94212    0   89          -  149.94212      -     -    0s
     0     0  149.94212    0   79          -  149.94212      -     -    0s
     0     0  253.48844    0  106          -  253.48844      -     -    0s
     0     0  253.48844    0  105          -  253.48844      -     -    0s
     0     0  257.97083    0  105          -  257.97083      -     -    0s
     0     0  275.75653    0  101          -  275.75653      -     -    0s
     0     0  275.75653    0   77          -  275.75653      -     -    1s
     0     0  327.21581    0   79          -  327.21581      -     -    1s
     0     0  343.80201    0   91          -  343.80201      -     -    1s
     0     0  343.80201    0   80          -  343.80201      -     -    1s
     0     0  343.80201    0   87          -  343.80201      -     -    1s
H    0     0                    99794.812500  343.80201   100%     -    1s
     0     0  343.80201    0   84 99794.8125  343.80201   100%     -    1s
H    0     0                    77551.875000  343.80201   100%     -    1s
     0     0  417.02690    0   77 77551.8750  417.02690  99.5%     -    2s
     0     0  417.19630    0   85 77551.8750  417.19630  99.5%     -    2s
     0     0  489.57668    0   98 77551.8750  489.57668  99.4%     -    2s
     0     0  489.59631    0   98 77551.8750  489.59631  99.4%     -    2s
     0     0 1574.49942    0   83 77551.8750 1574.49942  98.0%     -    2s
     0     0 1575.15408    0   79 77551.8750 1575.15408  98.0%     -    2s
     0     0 1713.42856    0   71 77551.8750 1713.42856  97.8%     -    2s
     0     0 2240.72519    0   65 77551.8750 2240.72519  97.1%     -    2s
     0     0 2978.40838    0   83 77551.8750 2978.40838  96.2%     -    2s
     0     0 3597.79948    0   80 77551.8750 3597.79948  95.4%     -    2s
     0     0 3597.79948    0   80 77551.8750 3597.79948  95.4%     -    2s
     0     0 5021.05056    0   72 77551.8750 5021.05056  93.5%     -    3s
     0     0 6143.64248    0   77 77551.8750 6143.64248  92.1%     -    3s
     0     0 6143.64248    0   73 77551.8750 6143.64248  92.1%     -    3s
     0     0 6143.64248    0   78 77551.8750 6143.64248  92.1%     -    3s
     0     0 6143.64248    0   71 77551.8750 6143.64248  92.1%     -    3s
H    0     0                    55411.836616 6143.64248  88.9%     -    3s
     0     0 6143.64248    0   71 55411.8366 6143.64248  88.9%     -    3s
     0     0 6143.64248    0   66 55411.8366 6143.64248  88.9%     -    3s
     0     0 6143.64248    0   67 55411.8366 6143.64248  88.9%     -    3s
     0     0 6143.64248    0   67 55411.8366 6143.64248  88.9%     -    3s
     0     0 6143.64248    0   66 55411.8366 6143.64248  88.9%     -    4s
     0     2 6143.64248    0   66 55411.8366 6143.64248  88.9%     -    4s
    46    65 17578.6792    6   59 55411.8366 6143.64248  88.9%  49.4    5s
H   47    65                    20607.312500 6143.64248  70.2%  48.4    5s
H   63    65                    20261.317500 6143.64248  69.7%  47.9    5s
H   74    65                    14489.304791 6143.64248  57.6%  43.1    5s
H  111    39                    14418.184791 6143.64248  57.4%  33.9    5s
H  191    61                    13991.187818 6143.64248  56.1%  23.4    5s
H  339    58                    13975.437500 6143.64248  56.0%  17.1    5s
H  364    60                    13951.312500 6143.64248  56.0%  16.8    5s
*  596   112              19    13827.520489 6143.64248  55.6%  13.1    5s
*  732   112              21    13683.401494 6143.64248  55.1%  11.7    5s
*  774    58              28    13603.919525 12499.4458  8.12%  11.3    5s
*  788    58              27    13453.544525 12499.4458  7.09%  11.2    5s
*  977     0              30    13404.903629 13404.6422  0.00%   9.6    5s

Cutting planes:
  Learned: 2
  Gomory: 11
  Implied bound: 73
  MIR: 46
  StrongCG: 3
  Flow cover: 6
  Zero half: 1
  RLT: 47
  Relax-and-lift: 11
  BQP: 3

Explored 990 nodes (10850 simplex iterations) in 5.98 seconds (0.21 work units)
Thread count was 32 (of 128 available processors)

Solution count 10: 13404.9 13453.5 13603.9 ... 14489.3

Optimal solution found (tolerance 1.00e-04)
Warning: max constraint violation (1.2682e-03) exceeds tolerance
Warning: max general constraint violation (1.2682e-03) exceeds tolerance
  Piecewise linearization of function constraints often causes big violation.
  Try to adjust the settings of the related parameters, such as FuncPieces.
Best objective 1.340490362924e+04, best bound 1.340490362924e+04, gap 0.0000%

Gurobi 11.0.0 (linux64) logging started Wed Dec 18 04:08:43 2024

Set parameter LogFile to value "gurobi.log"
Set parameter InfUnbdInfo to value 1
Gurobi Optimizer version 11.0.0 build v11.0.0rc2 (linux64 - "Ubuntu 22.04.4 LTS")

CPU model: AMD EPYC 7V13 64-Core Processor, instruction set [SSE2|AVX|AVX2]
Thread count: 128 physical cores, 128 logical processors, using up to 32 threads

Optimize a model with 56 rows, 200 columns and 157 nonzeros
Model fingerprint: 0xbff724d4
Model has 109 quadratic constraints
Model has 19 general constraints
Variable types: 41 continuous, 159 integer (0 binary)
Coefficient statistics:
  Matrix range     [1e+00, 2e+01]
  QMatrix range    [1e+00, 4e+02]
  QLMatrix range   [1e+00, 1e+00]
  Objective range  [1e+00, 1e+00]
  Bounds range     [1e+00, 2e+06]
  RHS range        [1e+00, 2e+06]
  QRHS range       [3e+02, 9e+03]
Using branch priorities (all 0).
Presolve added 44 rows and 79 columns
Presolve time: 0.01s
Presolved: 541 rows, 496 columns, 2398 nonzeros
Presolved model has 120 SOS constraint(s)
Presolved model has 39 bilinear constraint(s)
Warning: Model contains variables with very large bounds participating
         in product terms.
         Presolve was not able to compute smaller bounds for these variables.
         Consider bounding these variables or reformulating the model.


Solving non-convex MIQCP

Variable types: 126 continuous, 370 integer (98 binary)

Root relaxation: objective 1.499421e+02, 160 iterations, 0.00 seconds (0.00 work units)

    Nodes    |    Current Node    |     Objective Bounds      |     Work
 Expl Unexpl |  Obj  Depth IntInf | Incumbent    BestBd   Gap | It/Node Time

     0     0  149.94212    0   90          -  149.94212      -     -    0s
     0     0  149.94212    0   80          -  149.94212      -     -    0s
     0     0  253.48844    0  108          -  253.48844      -     -    0s
     0     0  253.48844    0  107          -  253.48844      -     -    0s
     0     0  257.97083    0  107          -  257.97083      -     -    0s
     0     0  275.75655    0   99          -  275.75655      -     -    0s
     0     0  275.75655    0   81          -  275.75655      -     -    0s
H    0     0                    270141.41544  275.75655   100%     -    0s
     0     0  327.56755    0   61 270141.415  327.56755   100%     -    0s
     0     0  337.30977    0   78 270141.415  337.30977   100%     -    0s
     0     0  409.78716    0  101 270141.415  409.78716   100%     -    0s
     0     0  409.80197    0  103 270141.415  409.80197   100%     -    0s
H    0     0                    245571.41544  409.86175   100%     -    0s
     0     0  409.86175    0  103 245571.415  409.86175   100%     -    0s
H    0     0                    99794.812500  409.86175   100%     -    0s
H    0     0                    77551.875000  409.86175  99.5%     -    0s
     0     0  482.05344    0  113 77551.8750  482.05344  99.4%     -    0s
     0     0  482.19928    0  113 77551.8750  482.19928  99.4%     -    0s
     0     0  542.97200    0  100 77551.8750  542.97200  99.3%     -    0s
     0     0  542.97200    0  100 77551.8750  542.97200  99.3%     -    0s
     0     0  543.09887    0  116 77551.8750  543.09887  99.3%     -    0s
H    0     0                    74067.875000 1579.08203  97.9%     -    0s
     0     0 1594.81665    0   89 74067.8750 1594.81665  97.8%     -    0s
     0     0 2265.91751    0   93 74067.8750 2265.91751  96.9%     -    0s
     0     0 2265.91751    0   93 74067.8750 2265.91751  96.9%     -    0s
     0     0 5021.05056    0   97 74067.8750 5021.05056  93.2%     -    0s
     0     0 6143.64248    0   76 74067.8750 6143.64248  91.7%     -    0s
     0     0 6143.64248    0   57 74067.8750 6143.64248  91.7%     -    0s
H    0     0                    74041.812500 6143.64248  91.7%     -    0s
     0     0 6143.64248    0   35 74041.8125 6143.64248  91.7%     -    0s
     0     0 6143.64248    0   43 74041.8125 6143.64248  91.7%     -    0s
     0     0 6143.64248    0   47 74041.8125 6143.64248  91.7%     -    0s
     0     0 6143.64248    0   61 74041.8125 6143.64248  91.7%     -    0s
     0     0 6143.64248    0   61 74041.8125 6143.64248  91.7%     -    0s
     0     0 6143.64248    0   46 74041.8125 6143.64248  91.7%     -    0s
     0     0 6143.64248    0   30 74041.8125 6143.64248  91.7%     -    0s
H    0     0                    24137.018502 6143.64248  74.5%     -    0s
     0     2 6143.64248    0   28 24137.0185 6143.64248  74.5%     -    1s
H   56    60                    24059.875000 6143.64248  74.5%  37.9    1s
H   64    60                    23989.036954 6143.64248  74.4%  34.3    1s
H  109   105                    19656.112227 6143.64248  68.7%  30.5    1s
H  118   105                    17908.030161 6143.64248  65.7%  31.0    1s
H  216   136                    17175.163598 6143.64248  64.2%  22.4    2s
H  332   156                    14643.592351 6143.64248  58.0%  19.8    2s
H  464   140                    14384.370923 6143.64248  57.3%  17.1    2s
*  807   202              22    13665.217872 6143.64248  55.0%  13.6    2s
H 1049   164                    13657.114468 6143.64248  55.0%  12.9    2s
* 1066   164              23    13627.862459 6143.64248  54.9%  12.9    2s
* 1624    46              19    13592.948885 6143.64248  54.8%  11.4    3s
* 1913    22              36    13453.544525 6143.64248  54.3%  10.9    3s
* 2046     1              31    13404.903629 13397.4185  0.06%  10.6    4s

Cutting planes:
  Learned: 3
  Gomory: 8
  Cover: 4
  Implied bound: 95
  MIR: 60
  StrongCG: 6
  Flow cover: 2
  Inf proof: 18
  Mod-K: 1
  RLT: 68
  Relax-and-lift: 24
  BQP: 1

Explored 2051 nodes (23143 simplex iterations) in 4.06 seconds (0.28 work units)
Thread count was 32 (of 128 available processors)

Solution count 10: 13404.9 13453.5 13592.9 ... 17908

Optimal solution found (tolerance 1.00e-04)
Warning: max constraint violation (1.2682e-03) exceeds tolerance
Warning: max general constraint violation (1.2682e-03) exceeds tolerance
  Piecewise linearization of function constraints often causes big violation.
  Try to adjust the settings of the related parameters, such as FuncPieces.
Best objective 1.340490362924e+04, best bound 1.340419707684e+04, gap 0.0053%

Gurobi 11.0.0 (linux64) logging started Wed Dec 18 05:45:23 2024

Set parameter LogFile to value "gurobi.log"
Set parameter InfUnbdInfo to value 1
Gurobi Optimizer version 11.0.0 build v11.0.0rc2 (linux64 - "Ubuntu 22.04.4 LTS")

CPU model: AMD EPYC 7V13 64-Core Processor, instruction set [SSE2|AVX|AVX2]
Thread count: 128 physical cores, 128 logical processors, using up to 32 threads

Optimize a model with 56 rows, 200 columns and 157 nonzeros
Model fingerprint: 0x7389e9c9
Model has 109 quadratic constraints
Model has 19 general constraints
Variable types: 41 continuous, 159 integer (0 binary)
Coefficient statistics:
  Matrix range     [1e+00, 2e+01]
  QMatrix range    [1e+00, 4e+02]
  QLMatrix range   [1e+00, 1e+00]
  Objective range  [1e+00, 1e+00]
  Bounds range     [1e+00, 2e+06]
  RHS range        [1e+00, 2e+06]
  QRHS range       [3e+02, 9e+03]
Using branch priorities (all 0).
Presolve added 44 rows and 79 columns
Presolve time: 0.01s
Presolved: 541 rows, 496 columns, 2398 nonzeros
Presolved model has 120 SOS constraint(s)
Presolved model has 39 bilinear constraint(s)
Warning: Model contains variables with very large bounds participating
         in product terms.
         Presolve was not able to compute smaller bounds for these variables.
         Consider bounding these variables or reformulating the model.


Solving non-convex MIQCP

Variable types: 126 continuous, 370 integer (98 binary)

Root relaxation: objective 1.499421e+02, 170 iterations, 0.00 seconds (0.00 work units)

    Nodes    |    Current Node    |     Objective Bounds      |     Work
 Expl Unexpl |  Obj  Depth IntInf | Incumbent    BestBd   Gap | It/Node Time

     0     0  149.94212    0   92          -  149.94212      -     -    0s
     0     0  149.94212    0   82          -  149.94212      -     -    0s
     0     0  253.48844    0  108          -  253.48844      -     -    0s
     0     0  253.48844    0  107          -  253.48844      -     -    0s
     0     0  257.97083    0  107          -  257.97083      -     -    0s
     0     0  275.75655    0   99          -  275.75655      -     -    0s
     0     0  275.75655    0   81          -  275.75655      -     -    0s
H    0     0                    270141.41544  275.75655   100%     -    0s
     0     0  327.56755    0   61 270141.415  327.56755   100%     -    0s
     0     0  337.30977    0   78 270141.415  337.30977   100%     -    0s
     0     0  409.78716    0  101 270141.415  409.78716   100%     -    0s
     0     0  409.80197    0  103 270141.415  409.80197   100%     -    0s
     0     0  409.86175    0  103 270141.415  409.86175   100%     -    0s
H    0     0                    99794.812500  409.86175   100%     -    0s
     0     0  481.51015    0  119 99794.8125  481.51015   100%     -    0s
     0     0  481.66363    0  113 99794.8125  481.66363   100%     -    0s
H    0     0                    89994.062500  481.66363  99.5%     -    0s
     0     0  542.36048    0  101 89994.0625  542.36048  99.4%     -    0s
     0     0  542.36048    0  101 89994.0625  542.36048  99.4%     -    0s
     0     0 1577.55604    0   82 89994.0625 1577.55604  98.2%     -    0s
     0     0 1713.42856    0  102 89994.0625 1713.42856  98.1%     -    0s
     0     0 2240.72519    0   96 89994.0625 2240.72519  97.5%     -    0s
     0     0 3597.79948    0   93 89994.0625 3597.79948  96.0%     -    0s
     0     0 3597.79948    0   93 89994.0625 3597.79948  96.0%     -    0s
     0     0 3616.01342    0   61 89994.0625 3616.01342  96.0%     -    0s
     0     0 6143.64248    0   71 89994.0625 6143.64248  93.2%     -    0s
     0     0 6143.64248    0   71 89994.0625 6143.64248  93.2%     -    0s
H    0     0                    74196.187500 6143.64248  91.7%     -    0s
     0     0 6143.64248    0   78 74196.1875 6143.64248  91.7%     -    0s
     0     0 6143.64248    0   57 74196.1875 6143.64248  91.7%     -    0s
H    0     0                    43113.494780 6143.64248  85.8%     -    0s
     0     0 6143.64248    0   64 43113.4948 6143.64248  85.8%     -    0s
     0     0 6143.64248    0   60 43113.4948 6143.64248  85.8%     -    0s
     0     0 6143.64248    0   59 43113.4948 6143.64248  85.8%     -    0s
     0     0 6143.64248    0   59 43113.4948 6143.64248  85.8%     -    0s
     0     0 6143.64248    0   48 43113.4948 6143.64248  85.8%     -    0s
H    0     2                    43113.244780 6143.64248  85.7%     -    1s
     0     2 6143.64248    0   47 43113.2448 6143.64248  85.7%     -    1s
H   28    41                    42407.867291 6143.64248  85.5%  60.8    1s
H   31    41                    42407.429791 6143.64248  85.5%  59.1    1s
H   39    41                    35882.312500 6143.64248  82.9%  52.6    1s
H   39    41                    20212.192500 6143.64248  69.6%  52.6    1s
H   85    71                    14418.184791 6143.64248  57.4%  51.3    1s
H   89    71                    13991.187818 6143.64248  56.1%  52.0    1s
H  286    59                    13827.520489 6143.64248  55.6%  25.2    1s
H  408    75                    13651.383159 6143.64248  55.0%  22.0    2s
*  600    53              23    13602.258159 6143.64248  54.8%  17.6    2s
*  675    33              20    13453.544525 6143.64248  54.3%  16.2    2s
*  743     4              23    13404.903629 13370.3326  0.26%  15.7    2s

Cutting planes:
  Learned: 4
  Gomory: 13
  Cover: 1
  Implied bound: 106
  MIR: 40
  StrongCG: 2
  Flow cover: 7
  RLT: 51
  Relax-and-lift: 19

Explored 747 nodes (13293 simplex iterations) in 2.47 seconds (0.22 work units)
Thread count was 32 (of 128 available processors)

Solution count 10: 13404.9 13453.5 13602.3 ... 42407.4

Optimal solution found (tolerance 1.00e-04)
Warning: max constraint violation (1.2682e-03) exceeds tolerance
Warning: max general constraint violation (1.2682e-03) exceeds tolerance
  Piecewise linearization of function constraints often causes big violation.
  Try to adjust the settings of the related parameters, such as FuncPieces.
Best objective 1.340490362924e+04, best bound 1.340490362924e+04, gap 0.0000%

Gurobi 11.0.0 (linux64) logging started Thu Dec 19 17:48:53 2024

Set parameter LogFile to value "gurobi.log"
Set parameter InfUnbdInfo to value 1
Gurobi Optimizer version 11.0.0 build v11.0.0rc2 (linux64 - "Ubuntu 22.04.4 LTS")

CPU model: AMD EPYC 7V13 64-Core Processor, instruction set [SSE2|AVX|AVX2]
Thread count: 128 physical cores, 128 logical processors, using up to 32 threads

Optimize a model with 56 rows, 200 columns and 157 nonzeros
Model fingerprint: 0x81422913
Model has 109 quadratic constraints
Model has 19 general constraints
Variable types: 41 continuous, 159 integer (0 binary)
Coefficient statistics:
  Matrix range     [1e+00, 2e+01]
  QMatrix range    [1e+00, 4e+02]
  QLMatrix range   [1e+00, 1e+00]
  Objective range  [1e+00, 1e+00]
  Bounds range     [1e+00, 2e+06]
  RHS range        [1e+00, 2e+06]
  QRHS range       [3e+02, 9e+03]
Using branch priorities (all 0).
Presolve added 44 rows and 79 columns
Presolve time: 0.01s
Presolved: 541 rows, 496 columns, 2398 nonzeros
Presolved model has 120 SOS constraint(s)
Presolved model has 39 bilinear constraint(s)
Warning: Model contains variables with very large bounds participating
         in product terms.
         Presolve was not able to compute smaller bounds for these variables.
         Consider bounding these variables or reformulating the model.


Solving non-convex MIQCP

Variable types: 126 continuous, 370 integer (98 binary)

Root relaxation: objective 1.499421e+02, 151 iterations, 0.00 seconds (0.00 work units)

    Nodes    |    Current Node    |     Objective Bounds      |     Work
 Expl Unexpl |  Obj  Depth IntInf | Incumbent    BestBd   Gap | It/Node Time

     0     0  149.94212    0   89          -  149.94212      -     -    0s
     0     0  149.94212    0   79          -  149.94212      -     -    0s
     0     0  253.48844    0  106          -  253.48844      -     -    0s
     0     0  253.48844    0  105          -  253.48844      -     -    0s
     0     0  257.97083    0  105          -  257.97083      -     -    0s
     0     0  275.75653    0  101          -  275.75653      -     -    0s
     0     0  275.75653    0   79          -  275.75653      -     -    1s
H    0     0                    482438.56250  275.75653   100%     -    1s
     0     0  327.22180    0   77 482438.563  327.22180   100%     -    1s
     0     0  343.22389    0   88 482438.563  343.22389   100%     -    1s
     0     0  415.60063    0   74 482438.563  415.60063   100%     -    1s
     0     0  415.61545    0   76 482438.563  415.61545   100%     -    1s
H    0     0                    457868.56250  415.81476   100%     -    1s
     0     0  415.81476    0   76 457868.562  415.81476   100%     -    1s
H    0     0                    99794.812500  415.81476   100%     -    1s
     0     0  488.04605    0   92 99794.8125  488.04605   100%     -    1s
     0     0  488.12850    0   91 99794.8125  488.12850   100%     -    1s
     0     0  544.59063    0   68 99794.8125  544.59063  99.5%     -    1s
     0     0  544.80574    0   98 99794.8125  544.80574  99.5%     -    1s
H    0     0                    89994.062500  567.90091  99.4%     -    1s
     0     0  567.90091    0  104 89994.0625  567.90091  99.4%     -    1s
     0     0 1575.02803    0   71 89994.0625 1575.02803  98.2%     -    2s
     0     0 1594.81665    0   78 89994.0625 1594.81665  98.2%     -    2s
     0     0 1594.81665    0   77 89994.0625 1594.81665  98.2%     -    2s
     0     0 2240.72519    0   73 89994.0625 2240.72519  97.5%     -    2s
     0     0 2240.72519    0   73 89994.0625 2240.72519  97.5%     -    2s
     0     0 2978.40838    0   77 89994.0625 2978.40838  96.7%     -    2s
     0     0 3597.79948    0   97 89994.0625 3597.79948  96.0%     -    2s
     0     0 5021.05056    0   89 89994.0625 5021.05056  94.4%     -    2s
     0     0 6143.64248    0   84 89994.0625 6143.64248  93.2%     -    2s
     0     0 6143.64248    0   80 89994.0625 6143.64248  93.2%     -    2s
     0     0 6143.64248    0   66 89994.0625 6143.64248  93.2%     -    2s
H    0     0                    89089.993459 6143.64248  93.1%     -    2s
     0     0 6143.64248    0   75 89089.9935 6143.64248  93.1%     -    2s
     0     0 6143.64248    0   74 89089.9935 6143.64248  93.1%     -    3s
     0     0 6143.64248    0   61 89089.9935 6143.64248  93.1%     -    3s
     0     0 6143.64248    0   61 89089.9935 6143.64248  93.1%     -    3s
     0     0 6143.64248    0   73 89089.9935 6143.64248  93.1%     -    3s
     0     0 6143.64248    0   73 89089.9935 6143.64248  93.1%     -    3s
H    0     0                    88699.868459 6143.64248  93.1%     -    3s
     0     2 6143.64248    0   73 88699.8685 6143.64248  93.1%     -    4s
H   91    89                    83878.867291 6143.64248  92.7%  29.4    4s
H   92    89                    58065.459893 6143.64248  89.4%  29.1    4s
H  163   127                    44493.473077 6143.64248  86.2%  24.6    4s
H  165   127                    42559.493207 6143.64248  85.6%  24.6    4s
   309   233 18361.7422   13   48 42559.4932 6143.64248  85.6%  20.0    5s
H  337   233                    41588.193892 6143.64248  85.2%  18.8    5s
*  680   371              23    31024.518439 6143.64248  80.2%  13.1    5s
*  682   371              17    24970.632351 6143.64248  75.4%  13.1    5s
*  777   378              25    20589.828643 6143.64248  70.2%  12.9    5s
H  853   453                    19914.334331 6143.64248  69.1%  12.3    5s
*  857   453              26    19002.525536 6143.64248  67.7%  12.3    5s
H  925   453                    15435.370203 6143.64248  60.2%  12.4    5s
* 1085   471              33    15265.961864 6143.64248  59.8%  12.4    5s
* 1428   548              21    14465.477166 6143.64248  57.5%  11.9    5s
* 1696   504              39    13905.484871 6143.64248  55.8%  11.8    5s
* 2225   466              38    13749.633159 6143.64248  55.3%  11.4    6s
* 2378   416              34    13736.340955 6143.64248  55.3%  11.4    6s
* 2519   416              29    13666.286564 6143.64248  55.0%  11.2    6s
* 2589   416              36    13651.383159 6143.64248  55.0%  11.2    6s
* 2656   416              37    13592.948885 6143.64248  54.8%  11.0    6s
* 2762   247              38    13511.385270 6143.64248  54.5%  10.8    6s
* 3064   247              39    13481.915904 6143.64248  54.4%  10.3    6s
* 3193   247              40    13462.260270 6143.64248  54.4%  10.2    6s
* 3321    19              36    13453.544525 8633.12865  35.8%  10.1    6s
* 3522     0              37    13404.903629 8633.12865  35.6%   9.6    6s

Cutting planes:
  Learned: 2
  Gomory: 16
  Cover: 3
  Implied bound: 107
  MIR: 61
  Flow cover: 11
  Flow path: 1
  Inf proof: 1
  RLT: 64
  Relax-and-lift: 23
  BQP: 4

Explored 3539 nodes (35416 simplex iterations) in 6.98 seconds (0.28 work units)
Thread count was 32 (of 128 available processors)

Solution count 10: 13404.9 13453.5 13462.3 ... 13749.6

Optimal solution found (tolerance 1.00e-04)
Warning: max constraint violation (1.2682e-03) exceeds tolerance
Warning: max general constraint violation (1.2682e-03) exceeds tolerance
  Piecewise linearization of function constraints often causes big violation.
  Try to adjust the settings of the related parameters, such as FuncPieces.
Best objective 1.340490362924e+04, best bound 1.340490362924e+04, gap 0.0000%
